clingo version 5.4.0
Reading from clingo\rna_ss_prediction_E2.lp
Solving...
Answer: 1
seq(1,a) seq(2,g) seq(3,u) seq(4,c) seq(5,c) seq(6,a) contacts(0) energy2(600)
Optimization: 600
Answer: 2
seq(1,a) seq(2,g) seq(3,u) seq(4,c) seq(5,c) seq(6,a) pairing(3,6) pairing(6,3) contacts(2) energy2(530)
Optimization: 530
Answer: 3
seq(1,a) seq(2,g) seq(3,u) seq(4,c) seq(5,c) seq(6,a) pairing(2,4) pairing(4,2) contacts(2) energy2(494)
Optimization: 494
OPTIMUM FOUND

Models       : 3
  Optimum    : yes
Optimization : 494
Calls        : 1
Time         : 0.009s (Solving: 0.00s 1st Model: 0.00s Unsat: 0.00s)
CPU Time     : 0.000s